SCIP Status        : solving was interrupted [time limit reached]
Total Time         :    3600.00
  solving          :    3600.00
  presolving       :       0.21 (included in solving)
  reading          :       0.00
  copying          :       1.45 (55 #copies) (minimal 0.00, maximal 0.06, average 0.03)
Original Problem   :
  Problem name     : bbbenchmark/g05_60.2.cut
  Variables        : 61 (60 binary, 0 integer, 0 implicit integer, 1 continuous)
  Constraints      : 1 initial, 1 maximal
  Objective        : minimize, 1 non-zeros (abs.min = 1, abs.max = 1)
Presolved Problem  :
  Problem name     : t_bbbenchmark/g05_60.2.cut
  Variables        : 946 (60 binary, 0 integer, 885 implicit integer, 1 continuous)
  Constraints      : 886 initial, 10491 maximal
  Objective        : minimize, 1 non-zeros (abs.min = 1, abs.max = 1)
  Nonzeros         : 3601 constraint, 122 clique table
Presolvers         :   ExecTime  SetupTime  Calls  FixedVars   AggrVars   ChgTypes  ChgBounds   AddHoles    DelCons    AddCons   ChgSides   ChgCoefs
  boundshift       :       0.00       0.00      0          0          0          0          0          0          0          0          0          0
  convertinttobin  :       0.00       0.00      0          0          0          0          0          0          0          0          0          0
  domcol           :       0.00       0.00      1          0          0          0          0          0          0          0          0          0
  dualagg          :       0.00       0.00      0          0          0          0          0          0          0          0          0          0
  dualcomp         :       0.00       0.00      1          0          0          0          0          0          0          0          0          0
  dualinfer        :       0.00       0.00      0          0          0          0          0          0          0          0          0          0
  dualsparsify     :       0.00       0.00      1          0          0          0          0          0          0          0          0          0
  gateextraction   :       0.00       0.00      0          0          0          0          0          0          0          0          0          0
  implics          :       0.00       0.00      2          0          0          0          0          0          0          0          0          0
  inttobinary      :       0.00       0.00      0          0          0          0          0          0          0          0          0          0
  qpkktref         :       0.00       0.00      0          0          0          0          0          0          0          0          0          0
  redvub           :       0.00       0.00      0          0          0          0          0          0          0          0          0          0
  sparsify         :       0.00       0.00      1          0          0          0          0          0          0          0          0          0
  stuffing         :       0.00       0.00      0          0          0          0          0          0          0          0          0          0
  trivial          :       0.00       0.00      4          0          0          0          0          0          0          0          0          0
  tworowbnd        :       0.00       0.00      0          0          0          0          0          0          0          0          0          0
  dualfix          :       0.00       0.00      4          0          0          0          0          0          0          0          0          0
  genvbounds       :       0.00       0.00      0          0          0          0          0          0          0          0          0          0
  probing          :       0.12       0.00      1          0          0          0          0          0          0          0          0          0
  pseudoobj        :       0.00       0.00      1          0          0          0          1          0          0          0          0          0
  symmetry         :       0.00       0.00      0          0          0          0          0          0          0          0          0          0
  vbounds          :       0.00       0.00      1          0          0          0          0          0          0          0          0          0
  and              :       0.00       0.00      2          0          0          0          0          0          0          0          0          0
  linear           :       0.00       0.00      2          0          0          0          0          0          0          0          0          0
  logicor          :       0.00       0.00      0          0          0          0          0          0          0          0          0          0
  nonlinear        :       0.08       0.01      5          0          0          0          1          0          0        885          0          0
  benders          :       0.00       0.00      0          0          0          0          0          0          0          0          0          0
  components       :       0.00       0.00      1          0          0          0          0          0          0          0          0          0
  root node        :          -          -      -          0          -          -         39          -          -          -          -          -
Constraints        :     Number  MaxNumber  #Separate #Propagate    #EnfoLP    #EnfoRelax  #EnfoPS    #Check   #ResProp    Cutoffs    DomReds       Cuts    Applied      Conss   Children
  benderslp        :          0          0          0          0      96946          0          0      24965          0          0          0          0          0          0          0
  integral         :          0          0          0          0      96946          0          0      24965          0          0       7097          0          0       2682     190122
  and              :        885        885     113864     634200          6          0          0         34     149892         34    3436413       1195       1147          0          0
  linear           :          1+         7        118     634166          6          0          0         32          0          0          0          0          0          0          0
  logicor          :          0+      9601          0     183850          0          0          0          0        578        541        118          0          0          0          0
  benders          :          0          0          0          0          6          0          0         35          0          0          0          0          0          0          0
  countsols        :          0          0          0          0          6          0          0         35          0          0          0          0          0          0          0
  components       :          0          0          0          0          0          0          0          0          0          0          0          0          0          0          0
Constraint Timings :  TotalTime  SetupTime   Separate  Propagate     EnfoLP     EnfoPS     EnfoRelax   Check    ResProp    SB-Prop
  benderslp        :       0.07       0.00       0.00       0.00       0.06       0.00       0.00       0.01       0.00       0.00
  integral         :      34.67       0.00       0.00       0.00      34.64       0.00       0.00       0.03       0.00       0.00
  and              :      59.36       0.00      35.59      23.25       0.00       0.00       0.00       0.00       0.21       0.31
  linear           :       0.55       0.00       0.03       0.52       0.00       0.00       0.00       0.00       0.00       0.00
  logicor          :      25.95       0.00       0.00      25.90       0.00       0.00       0.00       0.00       0.00       0.05
  benders          :       0.00       0.00       0.00       0.00       0.00       0.00       0.00       0.00       0.00       0.00
  countsols        :       0.00       0.00       0.00       0.00       0.00       0.00       0.00       0.00       0.00       0.00
  components       :       0.23       0.00       0.00       0.23       0.00       0.00       0.00       0.00       0.00       0.00
Propagators        : #Propagate   #ResProp    Cutoffs    DomReds
  dualfix          :          4          0          0          0
  genvbounds       :          0          0          0          0
  nlobbt           :          0          0          0          0
  obbt             :          0          0          0          0
  probing          :          0          0          0          0
  pseudoobj        :     495101          0          0         39
  redcost          :     243451          0          0     406332
  rootredcost      :         19          0          0          0
  symmetry         :          0          0          0          0
  vbounds          :      42846          0          0          0
Propagator Timings :  TotalTime  SetupTime   Presolve  Propagate    ResProp    SB-Prop
  dualfix          :       0.00       0.00       0.00       0.00       0.00       0.00
  genvbounds       :       0.54       0.00       0.00       0.54       0.00       0.00
  nlobbt           :       0.00       0.00       0.00       0.00       0.00       0.00
  obbt             :       0.00       0.00       0.00       0.00       0.00       0.00
  probing          :       0.12       0.00       0.12       0.00       0.00       0.00
  pseudoobj        :       0.70       0.00       0.00       0.70       0.00       0.00
  redcost          :       8.07       0.00       0.00       8.06       0.00       0.01
  rootredcost      :       0.50       0.00       0.00       0.49       0.00       0.01
  symmetry         :       0.33       0.00       0.00       0.33       0.00       0.00
  vbounds          :       0.50       0.00       0.00       0.50       0.00       0.00
Conflict Analysis  :       Time      Calls    Success    DomReds  Conflicts   Literals    Reconvs ReconvLits   Dualrays   Nonzeros   LP Iters   (pool size: [10000,10000])
  propagation      :       0.00        575        397          -        438       30.1          0        0.0          -          -          -
  infeasible LP    :       0.00          0          0          -          0        0.0          0        0.0          7       39.7          0
  bound exceed. LP :      15.31      12354       9295          -      66308       37.2          4       24.5          0        0.0      55141
  strong branching :       0.00          0          0          -          0        0.0          0        0.0          -          -          0
  pseudo solution  :       0.00          0          0          -          0        0.0          0        0.0          -          -          -
  applied globally :       0.32          -          -          0      29183       36.9          -          -          7          -          -
  applied locally  :          -          -          -          0          0        0.0          -          -          0          -          -
Separators         :   ExecTime  SetupTime      Calls  RootCalls    Cutoffs    DomReds  FoundCuts ViaPoolAdd  DirectAdd    Applied ViaPoolApp  DirectApp      Conss
  cut pool         :       1.99          -      32314        145          -          -      25211     378881          -          -          -          -          -    (maximal pool size:       1371)
  aggregation      :     124.84       0.00       4532        118          0          0         25          1          0          1          1          0          0
  > cmir           :          -          -          -          -          -          -          -          1          0          1          1          0          -
  > flowcover      :          -          -          -          -          -          -          -          0          0          0          0          0          -
  > knapsackcover  :          -          -          -          -          -          -          -          0          0          0          0          0          -
  cgmip            :       0.00       0.00          0          0          0          0          0          0          0          0          0          0          0
  clique           :       0.00       0.00        118        118          0          0          0          0          0          0          0          0          0
  closecuts        :       0.00       0.00          0          0          0          0          0          0          0          0          0          0          0
  convexproj       :       0.00       0.00          0          0          0          0          0          0          0          0          0          0          0
  disjunctive      :       0.00       0.00          0          0          0          0          0          0          0          0          0          0          0
  eccuts           :       0.00       0.00          0          0          0          0          0          0          0          0          0          0          0
  gauge            :       0.00       0.00          0          0          0          0          0          0          0          0          0          0          0
  gomory           :       0.00       0.00          0          0          0          0          0          0          0          0          0          0          0
  > gomorymi       :          -          -          -          -          -          -          -          0          0          0          0          0          -
  > strongcg       :          -          -          -          -          -          -          -          0          0          0          0          0          -
  impliedbounds    :       0.11       0.00       4532        118          0          0          1          0          0          0          0          0          0
  interlattice     :       0.00       0.00          0          0          0          0          0          0          0          0          0          0          0
  interminor       :       0.00       0.00          0          0          0          0          0          0          0          0          0          0          0
  intersub         :       0.39       0.00         60         60          0          0         60          0         60         60          0         60          0
  intobj           :       0.00       0.00          0          0          0          0          0          0          0          0          0          0          0
  mcf              :       0.00       0.00          1          1          0          0          0          0          0          0          0          0          0
  minor            :       0.02       0.00          0          0          0          0          0          0          0          0          0          0          0
  mixing           :       0.01       0.00       4532        118          0          0          0          0          0          0          0          0          0
  oddcycle         :       0.00       0.00          0          0          0          0          0          0          0          0          0          0          0
  rapidlearning    :       0.04       0.00          0          0          0          0          0          0          0          0          0          0          0
  rlt              :       0.00       0.00         10         10          0          0          0          0          0          0          0          0          0
  zerohalf         :      11.91       0.00       3679         20          0          0      25185     378880          0      91086      91086          0          0
Cutselectors       :   ExecTime  SetupTime      Calls  RootCalls   Selected     Forced   Filtered  RootSelec   RootForc   RootFilt 
  hybrid           :       0.23       0.00      20152        116      92294          0     287842        277          0         27
Pricers            :   ExecTime  SetupTime      Calls       Vars
  problem variables:       0.00          -          0          0
Branching Rules    :   ExecTime  SetupTime   BranchLP  BranchExt   BranchPS    Cutoffs    DomReds       Cuts      Conss   Children
  allfullstrong    :       0.00       0.00          0          0          0          0          0          0          0          0
  cloud            :       0.00       0.00          0          0          0          0          0          0          0          0
  distribution     :       0.00       0.00          0          0          0          0          0          0          0          0
  fullstrong       :       0.00       0.00          0          0          0          0          0          0          0          0
  inference        :       0.00       0.00          0          0          0          0          0          0          0          0
  leastinf         :       0.00       0.00          0          0          0          0          0          0          0          0
  lookahead        :       0.00       0.00          0          0          0          0          0          0          0          0
  mostinf          :       0.00       0.00          0          0          0          0          0          0          0          0
  multaggr         :       0.00       0.00          0          0          0          0          0          0          0          0
  nodereopt        :       0.00       0.00          0          0          0          0          0          0          0          0
  pscost           :       0.00       0.00          0          0          0          0          0          0          0          0
  random           :       0.00       0.00          0          0          0          0          0          0          0          0
  relpscost        :      34.44       0.00      96940          0          0          0       7097          0       2685     190122
  vanillafullstrong:       0.00       0.00          0          0          0          0          0          0          0          0
Primal Heuristics  :   ExecTime  SetupTime      Calls      Found       Best
  LP solutions     :       0.02          -          -          6          6
  relax solutions  :       0.00          -          -          0          0
  pseudo solutions :       0.00          -          -          0          0
  strong branching :       0.02          -          -          1          1
  actconsdiving    :       0.00       0.00          0          0          0
  adaptivediving   :       2.46       0.00         81          0          0
  alns             :       3.39       0.00         31          5          5
  bound            :       0.00       0.00          0          0          0
  clique           :       0.01       0.00          1          0          0
  coefdiving       :       0.00       0.00          0          0          0
  completesol      :       0.00       0.00          0          0          0
  conflictdiving   :      11.45       0.00        552          0          0
  crossover        :       0.15       0.00          5          2          2
  dins             :       0.00       0.00          0          0          0
  distributiondivin:      31.28       0.00        551          0          0
  dps              :       0.00       0.00          0          0          0
  dualval          :       0.00       0.00          0          0          0
  farkasdiving     :       0.02       0.00          0          0          0
  feaspump         :       0.04       0.00          0          0          0
  fixandinfer      :       0.00       0.00          0          0          0
  fracdiving       :      19.93       0.00        552          0          0
  gins             :       0.02       0.00          0          0          0
  guideddiving     :      17.04       0.00        552          4          4
  indicator        :       0.15       0.00          0          0          0
  indicatordiving  :       0.00       0.00          0          0          0
  intdiving        :       0.00       0.00          0          0          0
  intshifting      :       0.07       0.00         30          0          0
  linesearchdiving :      16.06       0.00        551          0          0
  localbranching   :       0.00       0.00          0          0          0
  locks            :       0.00       0.00          1          0          0
  lpface           :       0.17       0.00          0          0          0
  mpec             :       1.50       0.00          1          0          0
  multistart       :       0.00       0.00          0          0          0
  mutation         :       0.00       0.00          0          0          0
  nlpdiving        :       2.50       0.00          8          0          0
  objpscostdiving  :      23.81       0.00        120          5          1
  octane           :       0.00       0.00          0          0          0
  ofins            :       0.10       0.00          0          0          0
  oneopt           :       0.15       0.00         29          0          0
  padm             :       0.00       0.00          0          0          0
  proximity        :       0.00       0.00          0          0          0
  pscostdiving     :      17.33       0.00        551          1          1
  randrounding     :       1.09       0.00      24926          0          0
  rens             :       0.00       0.00          0          0          0
  reoptsols        :       0.00       0.00          0          0          0
  repair           :       0.00       0.00          0          0          0
  rins             :       4.46       0.00         20          0          0
  rootsoldiving    :      14.11       0.00         62          2          0
  rounding         :       0.73       0.00       4755          0          0
  shiftandpropagate:       0.00       0.00          0          0          0
  shifting         :      33.48       0.00      20032          9          9
  simplerounding   :       0.17       0.00          0          0          0
  subnlp           :      92.79       0.00          0          0          0
  trivial          :       0.01       0.00          2          2          2
  trivialnegation  :       0.00       0.00          0          0          0
  trustregion      :       0.00       0.00          0          0          0
  trysol           :       0.18       0.00          0          0          0
  twoopt           :       0.00       0.00          0          0          0
  undercover       :       1.11       0.00          1          1          1
  vbounds          :       0.00       0.00          0          0          0
  veclendiving     :       9.89       0.00        551          0          0
  zeroobj          :       0.00       0.00          0          0          0
  zirounding       :       0.26       0.00       1000          0          0
  other solutions  :          -          -          -          0          -
Diving (single)    :      Calls      Nodes   LP Iters Backtracks  Conflicts   MinDepth   MaxDepth   AvgDepth  RoundSols  NLeafSols  MinSolDpt  MaxSolDpt  AvgSolDpt
  actconsdiving    :          0          -          -          -          -          -          -          -          -          -          -          -          -
  coefdiving       :          0          -          -          -          -          -          -          -          -          -          -          -          -
  conflictdiving   :        552       9860     131715        584      10236         22         45       32.1          0          -          -          -          -
  distributiondivin:        551       7632     238998        739       5825         22         36       27.9          0          -          -          -          -
  farkasdiving     :          0          -          -          -          -          -          -          -          -          -          -          -          -
  fracdiving       :        552      50638     210171        633       4409         29        234      106.0          0          -          -          -          -
  guideddiving     :        552      44384     194941        404       3586         26        206       95.2          0          4         54         63       57.8
  indicatordiving  :          0          -          -          -          -          -          -          -          -          -          -          -          -
  linesearchdiving :        551      12331     186744        722      11908         25         52       36.6          0          -          -          -          -
  pscostdiving     :        551      10134     210274        588      10067         23         47       32.8          0          1         47         47       47.0
  veclendiving     :        551      10084      96079        552      12523         27         45       32.8          0          -          -          -          -
Diving (adaptive)  :      Calls      Nodes   LP Iters Backtracks  Conflicts   MinDepth   MaxDepth   AvgDepth  RoundSols  NLeafSols  MinSolDpt  MaxSolDpt  AvgSolDpt
  actconsdiving    :         15        216       5941         21        148         25         32       28.6          0          -          -          -          -
  coefdiving       :         22        424       5855         24        592         29         36       32.7          0          -          -          -          -
  conflictdiving   :          0          -          -          -          -          -          -          -          -          -          -          -          -
  distributiondivin:          0          -          -          -          -          -          -          -          -          -          -          -          -
  farkasdiving     :          0          -          -          -          -          -          -          -          -          -          -          -          -
  fracdiving       :          5        586       1796          6         33        112        147      132.2          0          -          -          -          -
  guideddiving     :         10        878       3801          6         30         38        211      101.2          0          -          -          -          -
  indicatordiving  :          0          -          -          -          -          -          -          -          -          -          -          -          -
  linesearchdiving :          9        219       2656          9        141         29         51       38.8          0          -          -          -          -
  pscostdiving     :         10        186       4627         10        205         29         35       32.0          0          -          -          -          -
  veclendiving     :         10        180       2254         10        239         30         38       32.2          0          -          -          -          -
Neighborhoods      :      Calls  SetupTime  SolveTime SolveNodes       Sols       Best       Exp3  EpsGreedy        UCB TgtFixRate  Opt  Inf Node Stal  Sol  Usr Othr Actv
  rens             :          4       0.17       0.02          1          0          0    0.00000   -1.00000    0.41128      0.437    0    3    0    0    0    0    1    1
  rins             :          3       0.10       0.03          5          0          0    0.00000   -1.00000    0.37209      0.550    0    2    0    0    0    0    1    1
  mutation         :          5       0.18       0.27        166          2          2    0.00000   -1.00000    0.47224      0.585    1    2    0    2    0    0    0    1
  localbranching   :          3       0.21       0.25        162          1          1    0.00000   -1.00000    0.50991      0.437    1    2    0    0    0    0    0    1
  crossover        :          3       0.17       0.14         38          0          0    0.00000   -1.00000    0.48466      0.437    0    3    0    0    0    0    0    1
  proximity        :          3       0.21       0.32         61          0          0    0.00000   -1.00000    0.46403      0.662    0    2    0    1    0    0    0    1
  zeroobjective    :          7       0.28       0.42        247          2          2    0.00000   -1.00000    0.49908      0.598    2    2    0    3    0    0    0    1
  dins             :          3       0.21       0.10         66          0          0    0.00000   -1.00000    0.46386      0.437    0    3    0    0    0    0    0    1
  trustregion      :          0       0.00       0.00          0          0          0    0.00000   -1.00000    1.00000      0.900    0    0    0    0    0    0    0    0
Expressions        :   #IntEval  IntEvalTi   #RevProp  RevPropTi    DomReds    Cutoffs  #Estimate  EstimTime  Branching  #Simplify SimplifyTi Simplified
  pow              :          0       0.00          0       0.00          0          0          0       0.00          0          0       0.00          0
  prod             :       3540       0.00          0       0.00          0          0          0       0.00          0       2655       0.00          0
  sum              :          8       0.01          2       0.00          0          0          0       0.00          0          3       0.01          2
  var              :       3327       0.00          0       0.00          0          0          0       0.00          0       6378       0.01          0
  varidx           :          0       0.00          0       0.00          0          0          0       0.00          0          0       0.00          0
LP                 :       Time      Calls Iterations  Iter/call   Iter/sec  Time-0-It Calls-0-It    ItLimit
  primal LP        :     148.00      18330          0       0.00       0.00     147.86      18330
  dual LP          :    2724.86     227798   20697430     104.34    7595.78       9.17      29428
  lex dual LP      :       0.00          0          0       0.00          -
  barrier LP       :       0.00          0          0       0.00          -       0.00          0
  resolve instable :       0.00          0          0       0.00          -
  diving/probing LP:     121.89      14692    1678919     114.27   13774.05
  strong branching :      14.22       3099     194682      62.82   13690.72          -          -         48
    (at root node) :          -         20       8895     444.75          -
  conflict analysis:       7.13       5624      55141       9.80    7733.66
NLP relaxation     :
  solve time       :       2.49 (8 calls)
  convexity        :  nonconvex (1 linear rows, 0 convex ineq., 0 nonconvex ineq., 885 nonlinear eq. or two-sided ineq.)
NLP Solvers        :  #Problems  ProblemTi    #Solves  SolveTime      #Iter  Time/Iter      #Okay #TimeLimit #IterLimit #LObjLimit #Interrupt  #NumError #EvalError  #OutOfMem #LicenseEr #OtherTerm   #GlobOpt    #LocOpt  #Feasible #LocInfeas #GlobInfea #Unbounded   #Unknown
  ipopt            :          2       5.62         11       4.04        313       0.01         11          0          0          0          0          0          0          0          0          0          0          0          0          3          0          0          8
B&B Tree           :
  number of runs   :          1
  nodes            :     176420 (95061 internal, 81359 leaves)
  feasible leaves  :          6
  infeas. leaves   :         81
  objective leaves :      81271
  nodes (total)    :     176420 (95061 internal, 81359 leaves)
  nodes left       :      13659
  max depth        :         36
  max depth (total):         36
  backtracks       :      44745 (25.4%)
  early backtracks :          0 (0.0%)
  nodes exc. ref.  :          0 (0.0%)
  delayed cutoffs  :          6
  repropagations   :         45 (436 domain reductions, 1 cutoffs)
  avg switch length:       4.01
  switching time   :     185.38
Estim. Tree Size   :    2020912
Estimation Tree    : 190123 nodes (176464 visited, 95061 internal, 81403 leaves, 13659 open), weight: 0.0696 completed 0.2942
Estimations        :      estim      value      trend resolution     smooth
  wbe              :    2338787          -          -          -          -
  tree-profile     :         -1          -          -          -          -
  gap              :    1053661    0.88702    0.00003        128    1115370
  tree-weight      :    2020913    0.06961    0.00013        128    2030102
  leaf-frequency   :    1028133    0.46130    0.00001        128    1001432
  ssg              :    1403424    0.57582   -0.00012        128    1410215
  open-nodes       :     352928 13659.00000    5.00706        128     352252
Root Node          :
  First LP value   : -1.00000000000000e+00
  First LP Iters   :        565 (18833.33 Iter/sec)
  First LP Time    :       0.03
  Final Dual Bound : -8.80805931901206e-01
  Final Root Iters :       5278
  Root LP Estimate : -4.88691705362042e-01
Solution           :
  Solutions found  :         38 (32 improvements)
  First Solution   : +1.00000000000000e+05   (in run 1, after 0 nodes, 0.03 seconds, depth 0, found by <trivial>)
  Gap First Sol.   :   infinite
  Gap Last Sol.    :      19.13 %
  Primal Bound     : -5.96610169491526e-01   (in run 1, after 70202 nodes, 1128.85 seconds, depth 20, found by <alns>)
  Dual Bound       : -6.72598870056498e-01
  Gap              :      12.74 %
Integrals          :      Total       Avg%
  primal-dual      :   55421.72      15.39
  primal-ref       :          -          - (not evaluated)
  dual-ref         :          -          - (not evaluated)
